944714
27 18 12606
18 40 18404
40 19 13572
19 4 26533
4 22 23621
22 24 45980
24 5 63665
5 32 3290
32 12 37145
12 33 3967
33 26 15458
26 37 14546
37 20 17449
20 13 31692
13 28 6411
28 31 12751
31 30 10287
30 39 6375
39 25 4093
25 23 11530
23 38 7449
38 29 745
29 34 35284
34 9 90444
9 6 47658
6 36 22446
36 7 11794
7 21 17005
21 1 6578
1 10 6947
10 2 10593
2 35 10541
35 11 5412
11 8 17581
8 15 26227
15 17 45489
17 14 42391
14 3 30026
3 16 71701
16 27 59028
